32	0

0	2	2	3
10	1	4
10	1	4
9	1	5
4	2	6	7
2	1	8
1	1	8
10	1	9
6	1	10
1	2	11	12
10	2	13	15
10	2	13	15
1	1	14
2	1	16
3	1	16
2	1	17
1	1	18
5	1	19
1	1	20
4	1	21
5	1	22
10	1	23
2	2	24	25
10	1	27
1	1	26
7	1	27
7	1	28
2	1	29
4	1	30
5	1	31
1	1	32
0	0
